
size = 15;

given = [|
 1,  3, 12|
 2,  1,  2|
 3, 11, 22|
 3, 13,  3|
 4,  7,  4|
 4, 11,  4|
 5,  3,  8|
 5,  5,  2|
 5, 15,  5|
 6,  1,  2|
 6,  6,  6|
 7,  1,  2|
 7,  3,  6|
 7,  6,  3|
 7, 10, 30|
 8,  4,  4|
 8,  5,  2|
 8,  6,  3|
 8,  8,  2|
 9,  4,  2|
10,  3,  6|
10,  8,  2|
10, 14, 10|
10, 15,  7|
12,  3, 16|
12,  5,  3|
12,  7,  5|
13,  8,  3|
13, 11, 24|
14,  5,  2|
14,  6,  5|
14,  7,  2|
14,  8,  2|
14, 15,  2|
15,  2,  3|
15,  4,  2|
15,  9,  2|
15, 12,  2|
15, 13,  3|];

% Output
%  *-----------------------------------*--*--*--*
%  |      12                           |  |  |  |
%  *--*--------------------------------*  |  |  |
%  | 2|                                |  |  |  |
%  |  |                                |  |  |  |
%  |  |                           22   | 3|  |  |
%  *--*--------*--*-----------*--------*--*  |  |
%  |           |  |    4      |    4      |  |  |
%  |           |  *--------*--*-----------*  |  |
%  |       8   | 2|        |              |  | 5|
%  *-----*-----*--*        |              |  *--*
%  | 2   |        | 6      |              |  |  |
%  *-----*        *--------*              |  |  |
%  | 2   | 6      | 3      |   30         |  |  |
%  *-----*-----*--*--*-----*              |  |  |
%  |          4| 2| 3|    2|              |  |  |
%  *--------*--*  |  *-----*              |  |  |
%  |        | 2|  |  |  |  |              |  |  |
%  |        |  |--*  |  |  |              |  |  |
%  |       6|  |  |  |  | 2|              |10| 7|
%  *--------*--*  *--*  *--*--------------*--*--|
%  |           |  |  |  |  |                 |  |
%  |           |  |  |  |  |                 |  |
%  |      16   | 3|  | 5|  |                 |  |
%  |           |--|  |  |  |                 *--*
%  |           |  |  |  | 3|      24         |  |
%  |           |  |  *--*--*                 |  |
%  |           | 2| 5| 2| 2|                 | 2|
%  *--------*-----|  |  |  *-----*-----*-----*--*
%  |    3   | 2   |  |  |  | 2   |    2| 3      |
%  *--------*-----*--*--*--*-----*-----*--------*